(set-logic QF_UF)
(declare-fun A0 () Bool)
(declare-fun A1 () Bool)
(declare-fun A2 () Bool)
(declare-fun A3 () Bool)
(declare-fun A4 () Bool)
(declare-fun A5 () Bool)
(declare-fun A6 () Bool)
(declare-fun A7 () Bool)
(declare-fun A8 () Bool)
(declare-fun A9 () Bool)
(declare-fun A10 () Bool)
(declare-fun A11 () Bool)
(declare-fun A13 () Bool)
(declare-fun A14 () Bool)
(declare-fun A15 () Bool)
(declare-fun A16 () Bool)
(declare-fun A19 () Bool)
(declare-fun A20 () Bool)
(declare-fun A21 () Bool)
(declare-fun A22 () Bool)
(declare-fun A23 () Bool)
(assert (let ((.def_0 (not A23))) (let ((.def_1 (or .def_0 A11))) (let ((.def_2 (not A16))) (let ((.def_3 (= A23 .def_2))) (let ((.def_4 (and .def_3 .def_1))) (let ((.def_5 (not .def_4))) (let ((.def_6 (not A11))) (let ((.def_7 (or .def_6 A14))) (let ((.def_8 (not A22))) (let ((.def_9 (not A6))) (let ((.def_10 (or .def_9 .def_8))) (let ((.def_11 (not .def_10))) (let ((.def_12 (= .def_11 .def_7))) (let ((.def_13 (not .def_12))) (let ((.def_14 (or .def_13 .def_5))) (let ((.def_15 (not .def_14))) (let ((.def_16 (not A0))) (let ((.def_17 (and .def_16 A10))) (let ((.def_18 (not .def_17))) (let ((.def_19 (not A2))) (let ((.def_20 (or A21 .def_19))) (let ((.def_21 (and .def_20 .def_18))) (let ((.def_22 (not A21))) (let ((.def_23 (not A15))) (let ((.def_24 (and .def_23 .def_22))) (let ((.def_25 (not A3))) (let ((.def_26 (or .def_25 A13))) (let ((.def_27 (and .def_26 .def_24))) (let ((.def_28 (not .def_27))) (let ((.def_29 (or .def_28 .def_21))) (let ((.def_30 (= .def_29 .def_15))) (let ((.def_31 (not .def_30))) (let ((.def_32 (not A4))) (let ((.def_33 (or .def_32 A1))) (let ((.def_34 (and A8 A3))) (let ((.def_35 (or .def_34 .def_33))) (let ((.def_36 (not A20))) (let ((.def_37 (or .def_36 .def_25))) (let ((.def_38 (not .def_37))) (let ((.def_39 (and .def_16 A5))) (let ((.def_40 (not .def_39))) (let ((.def_41 (or .def_40 .def_38))) (let ((.def_42 (not .def_41))) (let ((.def_43 (and .def_42 .def_35))) (let ((.def_44 (not .def_43))) (let ((.def_45 (or .def_2 .def_22))) (let ((.def_46 (not .def_45))) (let ((.def_47 (or .def_32 .def_32))) (let ((.def_48 (and .def_47 .def_46))) (let ((.def_49 (and A6 A19))) (let ((.def_50 (and A21 A3))) (let ((.def_51 (not .def_50))) (let ((.def_52 (and .def_51 .def_49))) (let ((.def_53 (and .def_52 .def_48))) (let ((.def_54 (not .def_53))) (let ((.def_55 (= .def_54 .def_44))) (let ((.def_56 (not .def_55))) (let ((.def_57 (and .def_56 .def_31))) (let ((.def_58 (not .def_57))) (let ((.def_59 (= A14 .def_19))) (let ((.def_60 (or A4 A8))) (let ((.def_61 (not .def_60))) (let ((.def_62 (or .def_61 .def_59))) (let ((.def_63 (not .def_62))) (let ((.def_64 (or .def_36 .def_16))) (let ((.def_65 (not .def_64))) (let ((.def_66 (or A10 A21))) (let ((.def_67 (not .def_66))) (let ((.def_68 (or .def_67 .def_65))) (let ((.def_69 (and .def_68 .def_63))) (let ((.def_70 (not .def_69))) (let ((.def_71 (not A10))) (let ((.def_72 (or .def_71 .def_0))) (let ((.def_73 (and A15 .def_36))) (let ((.def_74 (and .def_73 .def_72))) (let ((.def_75 (not A7))) (let ((.def_76 (= .def_32 .def_75))) (let ((.def_77 (and A7 A13))) (let ((.def_78 (and .def_77 .def_76))) (let ((.def_79 (not .def_78))) (let ((.def_80 (and .def_79 .def_74))) (let ((.def_81 (not .def_80))) (let ((.def_82 (or .def_81 .def_70))) (let ((.def_83 (and A10 A0))) (let ((.def_84 (not A1))) (let ((.def_85 (and A4 .def_84))) (let ((.def_86 (or .def_85 .def_83))) (let ((.def_87 (= A4 .def_75))) (let ((.def_88 (not A9))) (let ((.def_89 (= A19 .def_88))) (let ((.def_90 (not .def_89))) (let ((.def_91 (or .def_90 .def_87))) (let ((.def_92 (not .def_91))) (let ((.def_93 (or .def_92 .def_86))) (let ((.def_94 (or A3 .def_88))) (let ((.def_95 (= A7 .def_22))) (let ((.def_96 (or .def_95 .def_94))) (let ((.def_97 (not .def_96))) (let ((.def_98 (or .def_71 A23))) (let ((.def_99 (not A5))) (let ((.def_100 (or .def_6 .def_99))) (let ((.def_101 (not .def_100))) (let ((.def_102 (or .def_101 .def_98))) (let ((.def_103 (and .def_102 .def_97))) (let ((.def_104 (or .def_103 .def_93))) (let ((.def_105 (or .def_104 .def_82))) (let ((.def_106 (not .def_105))) (let ((.def_107 (and .def_106 .def_58))) .def_107)))))))))))))))))))))))))))))))))))))))))))))))))))))))))))))))))))))))))))))))))))))))))))))))))))))))))))))
(check-sat)
